p tw 77 86
1 2
2 13
3 4
4 5
5 6
6 7
6 9
7 8
8 9
8 18
9 10
10 11
11 12
12 14
13 24
14 15
15 16
16 17
17 3
18 19
19 20
20 21
21 22
22 23
23 25
24 35
25 26
25 31
26 27
27 28
27 31
28 29
28 31
29 30
30 21
31 32
32 33
33 34
34 36
35 46
36 37
36 64
37 38
38 39
39 40
40 41
41 42
42 43
42 64
43 44
44 45
45 47
46 57
47 48
48 49
49 50
49 64
50 51
51 52
52 53
53 54
53 46
54 55
55 56
56 58
57 68
58 59
59 60
60 61
61 62
62 63
63 51
64 65
65 66
66 46
67 69
68 76
69 70
70 71
71 72
72 73
73 74
74 75
76 77
76 67
77 3
